0.0,0.0
6.0,12.0
15.0,18.0
25.0,15.0
30.0,8.0
29.0,-4.0
22.0,-12.0
12.0,-16.0
4.0,-10.0
-5.0,-4.0
-8.0,5.0
-7.0,11.0
-3.0,16.0
5.0,10.0
13.0,4.0
19.0,-2.0
23.0,-8.0
17.0,-13.0
8.0,-9.0
-1.0,-2.0
-6.0,7.0
-4.0,13.0
2.0,14.0
9.0,8.0
16.0,1.0